g3 0 1 0	# problem d6n6R0R6d05d05
 6 5 1 0 0	# vars, constraints, objectives, ranges, eqns
 4 1	# nonlinear constraints, objectives
 0 0	# network constraints: nonlinear, linear
 6 6 6	# nonlinear vars in constraints, objectives, both
 0 0 0 1	# linear network variables; functions; arith, flags
 0 0 0 0 0	# discrete variables: binary, integer, nonlinear (b,c,o)
 30 6	# nonzeros in Jacobian, gradients
 0 0	# max name lengths: constraints, variables
 0 0 0 0 0	# common exprs: b,c,o,c1,o1
b
0 0.33 2.05
0 0.52 2.78
0 0.97 2.04
0 0.7 2.12
0 0.32 2.76
0 0.5 2.94
r
2 102.2
2 216.135
2 2028.41
2 6068.65
2 28.585
C0
o54
7
o2
o2
n2.16
v0
v0
o2
o2
n2.53
v0
v5
o2
o2
n5.38
v1
v2
o2
o2
n4.75
v3
v3
o2
o2
n2.05
v3
v4
o2
o2
n6.43
v4
v4
o2
o2
n1.22
v5
v5
C1
o54
36
o2
o2
n2.5
v0
v0
o16
o2
o2
n8.59
v0
v5
o16
o2
o2
n9.86
v1
v2
o16
o2
o2
n7.38
v3
v3
o2
o2
n0.89
v3
v4
o2
o2
n1.03
v4
v4
o2
o2
n2.99
v5
v5
o16
o2
o2
o2
n1.04
v0
v0
v2
o2
o2
o2
n4.04
v0
v0
v3
o16
o2
o2
o2
n7.77
v0
v1
v1
o2
o2
o2
n2.34
v0
v1
v2
o2
o2
o2
n2.44
v0
v1
v4
o2
o2
o2
n7.38
v0
v1
v5
o2
o2
o2
n6.39
v0
v2
v4
o2
o2
o2
n5.41
v0
v2
v5
o2
o2
o2
n4.07
v0
v3
v3
o2
o2
o2
n9.03
v0
v4
v4
o2
o2
o2
n1.39
v0
v4
v5
o2
o2
o2
n4.68
v0
v5
v5
o16
o2
o2
o2
n5.93
v1
v1
v1
o16
o2
o2
o2
n7.23
v1
v1
v2
o2
o2
o2
n0.65
v1
v1
v3
o16
o2
o2
o2
n5.66
v1
v1
v4
o16
o2
o2
o2
n7.6
v1
v1
v5
o2
o2
o2
n8.93
v1
v2
v5
o2
o2
o2
n3.17
v1
v3
v3
o2
o2
o2
n6.11
v1
v3
v4
o16
o2
o2
o2
n1.56
v1
v5
v5
o2
o2
o2
n9.72
v2
v2
v2
o2
o2
o2
n7.94
v2
v2
v5
o2
o2
o2
n6.57
v2
v3
v5
o2
o2
o2
n7.79
v2
v4
v4
o16
o2
o2
o2
n4.91
v2
v4
v5
o2
o2
o2
n4.21
v3
v3
v4
o2
o2
o2
n2.13
v3
v5
v5
o2
o2
o2
n9.52
v4
v4
v4
C2
o54
100
o2
o2
n0.76
v0
v0
o16
o2
o2
n2.64
v0
v5
o2
o2
n5.15
v1
v2
o2
o2
n6.83
v3
v3
o2
o2
n9.98
v3
v4
o2
o2
n6.87
v4
v4
o2
o2
n5.79
v5
v5
o2
o2
o2
n2.79
v0
v0
v2
o2
o2
o2
n8.81
v0
v0
v3
o2
o2
o2
n2.68
v0
v1
v1
o2
o2
o2
n0.81
v0
v1
v2
o2
o2
o2
n4.15
v0
v1
v4
o2
o2
o2
n5.11
v0
v1
v5
o2
o2
o2
n0.85
v0
v2
v4
o2
o2
o2
n7.8
v0
v2
v5
o2
o2
o2
n5.59
v0
v3
v3
o2
o2
o2
n8.08
v0
v4
v4
o2
o2
o2
n6.6
v0
v4
v5
o2
o2
o2
n7.04
v0
v5
v5
o16
o2
o2
o2
n8.41
v1
v1
v1
o2
o2
o2
n8.72
v1
v1
v2
o2
o2
o2
n4.19
v1
v1
v3
o2
o2
o2
n2.61
v1
v1
v4
o2
o2
o2
n0.68
v1
v1
v5
o2
o2
o2
n1.65
v1
v2
v5
o2
o2
o2
n2.75
v1
v3
v3
o2
o2
o2
n4.78
v1
v3
v4
o2
o2
o2
n8.71
v1
v5
v5
o2
o2
o2
n8.1
v2
v2
v2
o2
o2
o2
n3.31
v2
v2
v5
o2
o2
o2
n3.67
v2
v3
v5
o2
o2
o2
n9.72
v2
v4
v4
o2
o2
o2
n0.13
v2
v4
v5
o2
o2
o2
n7.18
v3
v3
v4
o16
o2
o2
o2
n4.07
v3
v5
v5
o2
o2
o2
n5.84
v4
v4
v4
o2
o2
o2
o2
n6.21
v0
v0
v0
v0
o2
o2
o2
o2
n5.45
v0
v0
v0
v4
o2
o2
o2
o2
n1.63
v0
v0
v1
v1
o2
o2
o2
o2
n9.24
v0
v0
v1
v3
o2
o2
o2
o2
n7.89
v0
v0
v1
v5
o2
o2
o2
o2
n9.86
v0
v0
v2
v3
o2
o2
o2
o2
n0.24
v0
v0
v3
v3
o2
o2
o2
o2
n8.62
v0
v0
v4
v4
o2
o2
o2
o2
n7.9
v0
v0
v4
v5
o2
o2
o2
o2
n4.87
v0
v0
v5
v5
o2
o2
o2
o2
n0.61
v0
v1
v1
v4
o2
o2
o2
o2
n6.88
v0
v1
v1
v5
o2
o2
o2
o2
n9.33
v0
v1
v2
v3
o2
o2
o2
o2
n0.94
v0
v1
v2
v5
o2
o2
o2
o2
n0.23
v0
v1
v3
v5
o2
o2
o2
o2
n0.09
v0
v1
v4
v4
o2
o2
o2
o2
n6.17
v0
v1
v4
v5
o2
o2
o2
o2
n9.15
v0
v2
v2
v2
o2
o2
o2
o2
n4.44
v0
v2
v2
v5
o16
o2
o2
o2
o2
n7.65
v0
v2
v3
v3
o2
o2
o2
o2
n5.09
v0
v2
v3
v5
o2
o2
o2
o2
n6.99
v0
v2
v4
v4
o2
o2
o2
o2
n8.82
v0
v2
v4
v5
o2
o2
o2
o2
n3.77
v0
v2
v5
v5
o2
o2
o2
o2
n8.41
v0
v3
v3
v3
o2
o2
o2
o2
n5.43
v0
v4
v4
v4
o2
o2
o2
o2
n2.87
v0
v4
v4
v5
o2
o2
o2
o2
n0.15
v0
v4
v5
v5
o2
o2
o2
o2
n8.37
v1
v1
v1
v1
o2
o2
o2
o2
n7.26
v1
v1
v1
v3
o2
o2
o2
o2
n4.85
v1
v1
v1
v4
o2
o2
o2
o2
n9.93
v1
v1
v2
v4
o2
o2
o2
o2
n2.64
v1
v1
v3
v3
o2
o2
o2
o2
n6.63
v1
v1
v3
v4
o2
o2
o2
o2
n7.91
v1
v1
v3
v5
o2
o2
o2
o2
n2.87
v1
v1
v4
v4
o2
o2
o2
o2
n1.1
v1
v1
v5
v5
o16
o2
o2
o2
o2
n9.91
v1
v2
v2
v2
o2
o2
o2
o2
n7.5
v1
v2
v2
v4
o2
o2
o2
o2
n1.83
v1
v2
v2
v5
o2
o2
o2
o2
n3.81
v1
v2
v3
v3
o2
o2
o2
o2
n7.73
v1
v2
v3
v5
o2
o2
o2
o2
n9.98
v1
v2
v4
v5
o2
o2
o2
o2
n0.41
v1
v3
v3
v4
o2
o2
o2
o2
n0.27
v1
v3
v5
v5
o2
o2
o2
o2
n8.3
v1
v5
v5
v5
o2
o2
o2
o2
n2.53
v2
v2
v2
v2
o2
o2
o2
o2
n1.96
v2
v2
v4
v4
o2
o2
o2
o2
n9.97
v2
v2
v4
v5
o2
o2
o2
o2
n2
v2
v3
v3
v3
o2
o2
o2
o2
n4.25
v2
v3
v4
v4
o2
o2
o2
o2
n9.72
v2
v3
v5
v5
o2
o2
o2
o2
n4.11
v2
v4
v4
v4
o2
o2
o2
o2
n7.2
v3
v3
v3
v3
o2
o2
o2
o2
n8.55
v3
v3
v3
v5
o2
o2
o2
o2
n8.31
v3
v3
v4
v4
o16
o2
o2
o2
o2
n8.6
v3
v3
v4
v5
o16
o2
o2
o2
o2
n7.29
v3
v4
v4
v4
o2
o2
o2
o2
n6.8
v3
v4
v4
v5
o2
o2
o2
o2
n6.38
v3
v4
v5
v5
o2
o2
o2
o2
n8.37
v3
v5
v5
v5
o2
o2
o2
o2
n9.06
v4
v4
v4
v5
o2
o2
o2
o2
n3.22
v4
v4
v5
v5
o2
o2
o2
o2
n0.59
v4
v5
v5
v5
C3
o54
224
o2
o2
n9.56
v0
v0
o2
o2
n6.52
v0
v5
o2
o2
n7.61
v1
v2
o2
o2
n2.48
v3
v3
o2
o2
n3.5
v3
v4
o2
o2
n4.56
v4
v4
o2
o2
n6.31
v5
v5
o2
o2
o2
n7.35
v0
v0
v2
o2
o2
o2
n2.16
v0
v0
v3
o2
o2
o2
n8.04
v0
v1
v1
o2
o2
o2
n6.15
v0
v1
v2
o2
o2
o2
n7.05
v0
v1
v4
o16
o2
o2
o2
n0.89
v0
v1
v5
o2
o2
o2
n6.55
v0
v2
v4
o2
o2
o2
n5.36
v0
v2
v5
o2
o2
o2
n3.31
v0
v3
v3
o2
o2
o2
n3.43
v0
v4
v4
o2
o2
o2
n7.59
v0
v4
v5
o2
o2
o2
n5.97
v0
v5
v5
o2
o2
o2
n4.46
v1
v1
v1
o2
o2
o2
n5.56
v1
v1
v2
o2
o2
o2
n9.29
v1
v1
v3
o2
o2
o2
n8.06
v1
v1
v4
o2
o2
o2
n3.79
v1
v1
v5
o2
o2
o2
n9.9
v1
v2
v5
o2
o2
o2
n4.34
v1
v3
v3
o2
o2
o2
n5.26
v1
v3
v4
o2
o2
o2
n9.05
v1
v5
v5
o2
o2
o2
n2.15
v2
v2
v2
o2
o2
o2
n5.18
v2
v2
v5
o2
o2
o2
n1.52
v2
v3
v5
o16
o2
o2
o2
n3.36
v2
v4
v4
o2
o2
o2
n8.39
v2
v4
v5
o16
o2
o2
o2
n0.45
v3
v3
v4
o2
o2
o2
n9.11
v3
v5
v5
o2
o2
o2
n7.21
v4
v4
v4
o2
o2
o2
o2
n3.76
v0
v0
v0
v0
o2
o2
o2
o2
n2.71
v0
v0
v0
v4
o2
o2
o2
o2
n7.87
v0
v0
v1
v1
o2
o2
o2
o2
n1.8
v0
v0
v1
v3
o2
o2
o2
o2
n2.33
v0
v0
v1
v5
o2
o2
o2
o2
n7.33
v0
v0
v2
v3
o2
o2
o2
o2
n5.74
v0
v0
v3
v3
o2
o2
o2
o2
n3.62
v0
v0
v4
v4
o2
o2
o2
o2
n8.2
v0
v0
v4
v5
o16
o2
o2
o2
o2
n2.74
v0
v0
v5
v5
o2
o2
o2
o2
n0.5
v0
v1
v1
v4
o2
o2
o2
o2
n0.26
v0
v1
v1
v5
o2
o2
o2
o2
n7.96
v0
v1
v2
v3
o2
o2
o2
o2
n1.86
v0
v1
v2
v5
o16
o2
o2
o2
o2
n2.79
v0
v1
v3
v5
o16
o2
o2
o2
o2
n7.51
v0
v1
v4
v4
o2
o2
o2
o2
n4.23
v0
v1
v4
v5
o2
o2
o2
o2
n4.76
v0
v2
v2
v2
o2
o2
o2
o2
n0.34
v0
v2
v2
v5
o2
o2
o2
o2
n7.62
v0
v2
v3
v3
o2
o2
o2
o2
n0.62
v0
v2
v3
v5
o2
o2
o2
o2
n2.67
v0
v2
v4
v4
o2
o2
o2
o2
n3.51
v0
v2
v4
v5
o2
o2
o2
o2
n8.93
v0
v2
v5
v5
o2
o2
o2
o2
n7.81
v0
v3
v3
v3
o2
o2
o2
o2
n3.11
v0
v4
v4
v4
o2
o2
o2
o2
n2.05
v0
v4
v4
v5
o2
o2
o2
o2
n6.66
v0
v4
v5
v5
o2
o2
o2
o2
n0.97
v1
v1
v1
v1
o2
o2
o2
o2
n6.38
v1
v1
v1
v3
o16
o2
o2
o2
o2
n3.08
v1
v1
v1
v4
o2
o2
o2
o2
n4.97
v1
v1
v2
v4
o2
o2
o2
o2
n8.37
v1
v1
v3
v3
o2
o2
o2
o2
n3.23
v1
v1
v3
v4
o2
o2
o2
o2
n0.35
v1
v1
v3
v5
o2
o2
o2
o2
n0.32
v1
v1
v4
v4
o2
o2
o2
o2
n1.27
v1
v1
v5
v5
o2
o2
o2
o2
n3.83
v1
v2
v2
v2
o2
o2
o2
o2
n4.79
v1
v2
v2
v4
o2
o2
o2
o2
n6.01
v1
v2
v2
v5
o2
o2
o2
o2
n5.04
v1
v2
v3
v3
o2
o2
o2
o2
n7.94
v1
v2
v3
v5
o2
o2
o2
o2
n6.21
v1
v2
v4
v5
o2
o2
o2
o2
n8.01
v1
v3
v3
v4
o2
o2
o2
o2
n1.59
v1
v3
v5
v5
o2
o2
o2
o2
n6.38
v1
v5
v5
v5
o2
o2
o2
o2
n6.35
v2
v2
v2
v2
o2
o2
o2
o2
n2
v2
v2
v4
v4
o2
o2
o2
o2
n2.92
v2
v2
v4
v5
o2
o2
o2
o2
n3.68
v2
v3
v3
v3
o2
o2
o2
o2
n3.12
v2
v3
v4
v4
o2
o2
o2
o2
n1.76
v2
v3
v5
v5
o2
o2
o2
o2
n6.09
v2
v4
v4
v4
o2
o2
o2
o2
n2.09
v3
v3
v3
v3
o2
o2
o2
o2
n6.11
v3
v3
v3
v5
o2
o2
o2
o2
n8.68
v3
v3
v4
v4
o2
o2
o2
o2
n9.29
v3
v3
v4
v5
o2
o2
o2
o2
n6.73
v3
v4
v4
v4
o2
o2
o2
o2
n3.34
v3
v4
v4
v5
o2
o2
o2
o2
n2.58
v3
v4
v5
v5
o2
o2
o2
o2
n9.27
v3
v5
v5
v5
o2
o2
o2
o2
n2.05
v4
v4
v4
v5
o2
o2
o2
o2
n9.3
v4
v4
v5
v5
o2
o2
o2
o2
n3.83
v4
v5
v5
v5
o2
o2
o2
o2
o2
n9.92
v0
v0
v0
v0
v4
o2
o2
o2
o2
o2
n9.51
v0
v0
v0
v1
v3
o2
o2
o2
o2
o2
n4.16
v0
v0
v0
v1
v5
o2
o2
o2
o2
o2
n6.62
v0
v0
v0
v2
v2
o2
o2
o2
o2
o2
n2.2
v0
v0
v0
v2
v3
o2
o2
o2
o2
o2
n6.55
v0
v0
v0
v3
v3
o2
o2
o2
o2
o2
n4.32
v0
v0
v0
v3
v4
o2
o2
o2
o2
o2
n3.56
v0
v0
v0
v4
v4
o2
o2
o2
o2
o2
n5.26
v0
v0
v0
v5
v5
o2
o2
o2
o2
o2
n6.77
v0
v0
v1
v1
v2
o2
o2
o2
o2
o2
n4.13
v0
v0
v1
v1
v3
o16
o2
o2
o2
o2
o2
n1.47
v0
v0
v1
v1
v4
o2
o2
o2
o2
o2
n8.8
v0
v0
v1
v1
v5
o2
o2
o2
o2
o2
n1.39
v0
v0
v1
v3
v4
o2
o2
o2
o2
o2
n8.93
v0
v0
v1
v3
v5
o2
o2
o2
o2
o2
n8.5
v0
v0
v1
v4
v4
o2
o2
o2
o2
o2
n6.73
v0
v0
v1
v4
v5
o2
o2
o2
o2
o2
n1.92
v0
v0
v2
v2
v3
o2
o2
o2
o2
o2
n9.31
v0
v0
v2
v2
v4
o2
o2
o2
o2
o2
n2.4
v0
v0
v2
v2
v5
o2
o2
o2
o2
o2
n2.04
v0
v0
v2
v3
v3
o2
o2
o2
o2
o2
n4.11
v0
v0
v2
v3
v5
o2
o2
o2
o2
o2
n6.58
v0
v0
v3
v3
v4
o2
o2
o2
o2
o2
n0.11
v0
v0
v3
v3
v5
o16
o2
o2
o2
o2
o2
n2.95
v0
v0
v3
v4
v4
o2
o2
o2
o2
o2
n3.18
v0
v0
v3
v5
v5
o2
o2
o2
o2
o2
n9.55
v0
v0
v4
v4
v4
o2
o2
o2
o2
o2
n8.58
v0
v0
v4
v4
v5
o2
o2
o2
o2
o2
n0.26
v0
v0
v5
v5
v5
o2
o2
o2
o2
o2
n0.22
v0
v1
v1
v1
v1
o2
o2
o2
o2
o2
n2.57
v0
v1
v1
v1
v5
o2
o2
o2
o2
o2
n6.86
v0
v1
v1
v2
v3
o2
o2
o2
o2
o2
n6.01
v0
v1
v1
v2
v4
o2
o2
o2
o2
o2
n9.92
v0
v1
v1
v2
v5
o2
o2
o2
o2
o2
n4.71
v0
v1
v1
v3
v4
o2
o2
o2
o2
o2
n9.39
v0
v1
v1
v4
v4
o2
o2
o2
o2
o2
n3.35
v0
v1
v1
v4
v5
o2
o2
o2
o2
o2
n9.49
v0
v1
v2
v2
v3
o16
o2
o2
o2
o2
o2
n0.37
v0
v1
v2
v2
v5
o2
o2
o2
o2
o2
n0.57
v0
v1
v2
v3
v4
o2
o2
o2
o2
o2
n7.69
v0
v1
v2
v4
v5
o2
o2
o2
o2
o2
n8.87
v0
v1
v2
v5
v5
o2
o2
o2
o2
o2
n0.92
v0
v1
v3
v3
v3
o16
o2
o2
o2
o2
o2
n0.61
v0
v1
v3
v3
v4
o2
o2
o2
o2
o2
n9.06
v0
v1
v3
v4
v5
o2
o2
o2
o2
o2
n2.16
v0
v1
v3
v5
v5
o2
o2
o2
o2
o2
n7.83
v0
v1
v4
v4
v4
o16
o2
o2
o2
o2
o2
n2.58
v0
v1
v4
v5
v5
o16
o2
o2
o2
o2
o2
n5.75
v0
v2
v2
v2
v5
o2
o2
o2
o2
o2
n0.35
v0
v2
v2
v3
v3
o2
o2
o2
o2
o2
n6.83
v0
v2
v3
v4
v5
o2
o2
o2
o2
o2
n0.72
v0
v2
v4
v4
v4
o2
o2
o2
o2
o2
n9.19
v0
v2
v4
v4
v5
o2
o2
o2
o2
o2
n5.22
v0
v3
v3
v3
v4
o2
o2
o2
o2
o2
n3.46
v0
v3
v3
v4
v5
o2
o2
o2
o2
o2
n0.03
v0
v4
v4
v4
v4
o16
o2
o2
o2
o2
o2
n0.12
v0
v4
v4
v4
v5
o2
o2
o2
o2
o2
n4.57
v0
v4
v4
v5
v5
o2
o2
o2
o2
o2
n9.85
v0
v4
v5
v5
v5
o2
o2
o2
o2
o2
n7.09
v0
v5
v5
v5
v5
o2
o2
o2
o2
o2
n5.91
v1
v1
v1
v1
v1
o2
o2
o2
o2
o2
n8.65
v1
v1
v1
v1
v2
o2
o2
o2
o2
o2
n2.66
v1
v1
v1
v1
v3
o2
o2
o2
o2
o2
n2.13
v1
v1
v1
v1
v4
o2
o2
o2
o2
o2
n9.23
v1
v1
v1
v1
v5
o16
o2
o2
o2
o2
o2
n7.85
v1
v1
v1
v2
v2
o2
o2
o2
o2
o2
n2.42
v1
v1
v1
v2
v4
o2
o2
o2
o2
o2
n2.31
v1
v1
v1
v3
v4
o2
o2
o2
o2
o2
n7.94
v1
v1
v1
v3
v5
o2
o2
o2
o2
o2
n1.65
v1
v1
v1
v4
v5
o2
o2
o2
o2
o2
n3.97
v1
v1
v1
v5
v5
o2
o2
o2
o2
o2
n6.37
v1
v1
v2
v2
v4
o2
o2
o2
o2
o2
n6.19
v1
v1
v2
v2
v5
o2
o2
o2
o2
o2
n8.85
v1
v1
v2
v3
v4
o2
o2
o2
o2
o2
n8.26
v1
v1
v2
v3
v5
o2
o2
o2
o2
o2
n0.36
v1
v1
v3
v3
v4
o16
o2
o2
o2
o2
o2
n6.84
v1
v1
v3
v4
v5
o2
o2
o2
o2
o2
n8.94
v1
v1
v4
v4
v4
o16
o2
o2
o2
o2
o2
n5.32
v1
v2
v2
v2
v3
o2
o2
o2
o2
o2
n4.8
v1
v2
v2
v2
v4
o2
o2
o2
o2
o2
n5.08
v1
v2
v2
v3
v3
o16
o2
o2
o2
o2
o2
n4.86
v1
v2
v3
v3
v3
o2
o2
o2
o2
o2
n8.58
v1
v2
v4
v4
v4
o2
o2
o2
o2
o2
n2.91
v1
v2
v4
v5
v5
o2
o2
o2
o2
o2
n3.27
v1
v3
v3
v3
v5
o2
o2
o2
o2
o2
n6.94
v1
v3
v3
v4
v4
o2
o2
o2
o2
o2
n0.3
v1
v3
v4
v4
v5
o2
o2
o2
o2
o2
n0.27
v1
v3
v4
v5
v5
o2
o2
o2
o2
o2
n7.16
v1
v4
v4
v5
v5
o2
o2
o2
o2
o2
n8.05
v2
v2
v2
v2
v4
o2
o2
o2
o2
o2
n8.38
v2
v2
v2
v3
v4
o2
o2
o2
o2
o2
n5.56
v2
v2
v2
v3
v5
o2
o2
o2
o2
o2
n3.2
v2
v2
v2
v4
v4
o16
o2
o2
o2
o2
o2
n0.09
v2
v2
v2
v4
v5
o2
o2
o2
o2
o2
n4.37
v2
v2
v2
v5
v5
o2
o2
o2
o2
o2
n2.69
v2
v2
v3
v3
v3
o2
o2
o2
o2
o2
n7.19
v2
v2
v3
v3
v4
o2
o2
o2
o2
o2
n1.67
v2
v2
v3
v3
v5
o2
o2
o2
o2
o2
n2.69
v2
v2
v3
v4
v4
o16
o2
o2
o2
o2
o2
n4.08
v2
v2
v4
v4
v4
o2
o2
o2
o2
o2
n4.19
v2
v2
v4
v4
v5
o2
o2
o2
o2
o2
n7.05
v2
v2
v4
v5
v5
o2
o2
o2
o2
o2
n1.17
v2
v2
v5
v5
v5
o2
o2
o2
o2
o2
n5.26
v2
v3
v3
v3
v5
o2
o2
o2
o2
o2
n9.61
v2
v3
v3
v4
v4
o2
o2
o2
o2
o2
n6.35
v2
v3
v3
v4
v5
o2
o2
o2
o2
o2
n2.79
v2
v3
v3
v5
v5
o2
o2
o2
o2
o2
n0.66
v2
v3
v4
v4
v4
o2
o2
o2
o2
o2
n1.63
v2
v3
v4
v4
v5
o2
o2
o2
o2
o2
n6.98
v2
v3
v5
v5
v5
o2
o2
o2
o2
o2
n8.7
v2
v4
v4
v4
v4
o2
o2
o2
o2
o2
n0.72
v2
v4
v4
v4
v5
o2
o2
o2
o2
o2
n4.81
v2
v5
v5
v5
v5
o2
o2
o2
o2
o2
n6.33
v3
v3
v3
v3
v3
o2
o2
o2
o2
o2
n2.47
v3
v3
v3
v4
v4
o2
o2
o2
o2
o2
n0.18
v3
v3
v3
v4
v5
o2
o2
o2
o2
o2
n5
v3
v3
v4
v4
v4
o2
o2
o2
o2
o2
n5.76
v3
v3
v4
v4
v5
o2
o2
o2
o2
o2
n5.62
v3
v3
v4
v5
v5
o2
o2
o2
o2
o2
n7.64
v3
v4
v4
v4
v5
o2
o2
o2
o2
o2
n5.42
v3
v4
v5
v5
v5
o2
o2
o2
o2
o2
n5.73
v4
v4
v4
v4
v5
o2
o2
o2
o2
o2
n4.32
v4
v5
v5
v5
v5
o2
o2
o2
o2
o2
n6.43
v5
v5
v5
v5
v5
C4
n0
O0 0
o54
458
o2
o2
n6.03
v0
v0
o2
o2
n9.66
v0
v5
o2
o2
n8.33
v1
v2
o2
o2
n4.33
v3
v3
o2
o2
n9.67
v3
v4
o2
o2
n7.56
v4
v4
o16
o2
o2
n4.54
v5
v5
o2
o2
o2
n2.59
v0
v0
v2
o2
o2
o2
n7.69
v0
v0
v3
o2
o2
o2
n0.86
v0
v1
v1
o2
o2
o2
n9.26
v0
v1
v2
o2
o2
o2
n0.44
v0
v1
v4
o16
o2
o2
o2
n3.94
v0
v1
v5
o16
o2
o2
o2
n1.34
v0
v2
v4
o2
o2
o2
n0.87
v0
v2
v5
o16
o2
o2
o2
n6.57
v0
v3
v3
o2
o2
o2
n5.61
v0
v4
v4
o2
o2
o2
n3.05
v0
v4
v5
o2
o2
o2
n1.02
v0
v5
v5
o2
o2
o2
n1.47
v1
v1
v1
o2
o2
o2
n8.38
v1
v1
v2
o2
o2
o2
n9.12
v1
v1
v3
o2
o2
o2
n5.44
v1
v1
v4
o2
o2
o2
n4.79
v1
v1
v5
o16
o2
o2
o2
n2.89
v1
v2
v5
o2
o2
o2
n9.75
v1
v3
v3
o2
o2
o2
n5.96
v1
v3
v4
o2
o2
o2
n3.97
v1
v5
v5
o2
o2
o2
n2.43
v2
v2
v2
o2
o2
o2
n1.47
v2
v2
v5
o2
o2
o2
n3.93
v2
v3
v5
o2
o2
o2
n4.12
v2
v4
v4
o2
o2
o2
n1.87
v2
v4
v5
o2
o2
o2
n7.64
v3
v3
v4
o16
o2
o2
o2
n4.69
v3
v5
v5
o2
o2
o2
n9.16
v4
v4
v4
o16
o2
o2
o2
o2
n7.89
v0
v0
v0
v0
o2
o2
o2
o2
n0.21
v0
v0
v0
v4
o2
o2
o2
o2
n3.47
v0
v0
v1
v1
o2
o2
o2
o2
n4.23
v0
v0
v1
v3
o2
o2
o2
o2
n0.37
v0
v0
v1
v5
o2
o2
o2
o2
n2.76
v0
v0
v2
v3
o2
o2
o2
o2
n2.39
v0
v0
v3
v3
o2
o2
o2
o2
n9.26
v0
v0
v4
v4
o2
o2
o2
o2
n5.16
v0
v0
v4
v5
o2
o2
o2
o2
n4.7
v0
v0
v5
v5
o2
o2
o2
o2
n8.85
v0
v1
v1
v4
o2
o2
o2
o2
n3.91
v0
v1
v1
v5
o16
o2
o2
o2
o2
n7.96
v0
v1
v2
v3
o2
o2
o2
o2
n6.83
v0
v1
v2
v5
o2
o2
o2
o2
n5.03
v0
v1
v3
v5
o2
o2
o2
o2
n3.67
v0
v1
v4
v4
o16
o2
o2
o2
o2
n9.54
v0
v1
v4
v5
o2
o2
o2
o2
n8.06
v0
v2
v2
v2
o2
o2
o2
o2
n8.79
v0
v2
v2
v5
o2
o2
o2
o2
n7.26
v0
v2
v3
v3
o2
o2
o2
o2
n2.19
v0
v2
v3
v5
o2
o2
o2
o2
n3.45
v0
v2
v4
v4
o2
o2
o2
o2
n5.65
v0
v2
v4
v5
o2
o2
o2
o2
n5.25
v0
v2
v5
v5
o16
o2
o2
o2
o2
n7.41
v0
v3
v3
v3
o16
o2
o2
o2
o2
n3.43
v0
v4
v4
v4
o2
o2
o2
o2
n2.18
v0
v4
v4
v5
o16
o2
o2
o2
o2
n9.96
v0
v4
v5
v5
o16
o2
o2
o2
o2
n4.85
v1
v1
v1
v1
o2
o2
o2
o2
n4.36
v1
v1
v1
v3
o2
o2
o2
o2
n0.55
v1
v1
v1
v4
o2
o2
o2
o2
n6.57
v1
v1
v2
v4
o2
o2
o2
o2
n2.52
v1
v1
v3
v3
o2
o2
o2
o2
n0.22
v1
v1
v3
v4
o2
o2
o2
o2
n4.35
v1
v1
v3
v5
o2
o2
o2
o2
n5.52
v1
v1
v4
v4
o2
o2
o2
o2
n8.22
v1
v1
v5
v5
o2
o2
o2
o2
n5.7
v1
v2
v2
v2
o2
o2
o2
o2
n5.64
v1
v2
v2
v4
o2
o2
o2
o2
n6.15
v1
v2
v2
v5
o2
o2
o2
o2
n2.25
v1
v2
v3
v3
o2
o2
o2
o2
n0.37
v1
v2
v3
v5
o2
o2
o2
o2
n3.3
v1
v2
v4
v5
o16
o2
o2
o2
o2
n1.56
v1
v3
v3
v4
o2
o2
o2
o2
n1.32
v1
v3
v5
v5
o2
o2
o2
o2
n4.25
v1
v5
v5
v5
o2
o2
o2
o2
n2.58
v2
v2
v2
v2
o2
o2
o2
o2
n4.74
v2
v2
v4
v4
o2
o2
o2
o2
n3.81
v2
v2
v4
v5
o2
o2
o2
o2
n4.56
v2
v3
v3
v3
o2
o2
o2
o2
n5.94
v2
v3
v4
v4
o2
o2
o2
o2
n5.99
v2
v3
v5
v5
o2
o2
o2
o2
n6.16
v2
v4
v4
v4
o2
o2
o2
o2
n3.7
v3
v3
v3
v3
o2
o2
o2
o2
n5.1
v3
v3
v3
v5
o2
o2
o2
o2
n1.52
v3
v3
v4
v4
o2
o2
o2
o2
n0.57
v3
v3
v4
v5
o16
o2
o2
o2
o2
n8.52
v3
v4
v4
v4
o2
o2
o2
o2
n4.38
v3
v4
v4
v5
o2
o2
o2
o2
n3.34
v3
v4
v5
v5
o16
o2
o2
o2
o2
n3.97
v3
v5
v5
v5
o2
o2
o2
o2
n0.86
v4
v4
v4
v5
o2
o2
o2
o2
n5.24
v4
v4
v5
v5
o2
o2
o2
o2
n0.39
v4
v5
v5
v5
o2
o2
o2
o2
o2
n8.21
v0
v0
v0
v0
v4
o2
o2
o2
o2
o2
n9.25
v0
v0
v0
v1
v3
o2
o2
o2
o2
o2
n2.14
v0
v0
v0
v1
v5
o2
o2
o2
o2
o2
n0.94
v0
v0
v0
v2
v2
o2
o2
o2
o2
o2
n1.49
v0
v0
v0
v2
v3
o2
o2
o2
o2
o2
n1.96
v0
v0
v0
v3
v3
o2
o2
o2
o2
o2
n9.57
v0
v0
v0
v3
v4
o2
o2
o2
o2
o2
n6.21
v0
v0
v0
v4
v4
o2
o2
o2
o2
o2
n1.07
v0
v0
v0
v5
v5
o2
o2
o2
o2
o2
n1.24
v0
v0
v1
v1
v2
o2
o2
o2
o2
o2
n0.41
v0
v0
v1
v1
v3
o2
o2
o2
o2
o2
n5.23
v0
v0
v1
v1
v4
o2
o2
o2
o2
o2
n7.2
v0
v0
v1
v1
v5
o2
o2
o2
o2
o2
n8.85
v0
v0
v1
v3
v4
o2
o2
o2
o2
o2
n5.48
v0
v0
v1
v3
v5
o2
o2
o2
o2
o2
n1.03
v0
v0
v1
v4
v4
o2
o2
o2
o2
o2
n8.33
v0
v0
v1
v4
v5
o2
o2
o2
o2
o2
n2.78
v0
v0
v2
v2
v3
o2
o2
o2
o2
o2
n4.34
v0
v0
v2
v2
v4
o2
o2
o2
o2
o2
n7.96
v0
v0
v2
v2
v5
o2
o2
o2
o2
o2
n7.55
v0
v0
v2
v3
v3
o2
o2
o2
o2
o2
n5.29
v0
v0
v2
v3
v5
o2
o2
o2
o2
o2
n7.4
v0
v0
v3
v3
v4
o2
o2
o2
o2
o2
n0.38
v0
v0
v3
v3
v5
o2
o2
o2
o2
o2
n0.28
v0
v0
v3
v4
v4
o16
o2
o2
o2
o2
o2
n2.16
v0
v0
v3
v5
v5
o2
o2
o2
o2
o2
n9.21
v0
v0
v4
v4
v4
o16
o2
o2
o2
o2
o2
n2.48
v0
v0
v4
v4
v5
o16
o2
o2
o2
o2
o2
n3.23
v0
v0
v5
v5
v5
o2
o2
o2
o2
o2
n3.18
v0
v1
v1
v1
v1
o2
o2
o2
o2
o2
n3.06
v0
v1
v1
v1
v5
o16
o2
o2
o2
o2
o2
n9.48
v0
v1
v1
v2
v3
o2
o2
o2
o2
o2
n4.59
v0
v1
v1
v2
v4
o2
o2
o2
o2
o2
n3.94
v0
v1
v1
v2
v5
o2
o2
o2
o2
o2
n6.76
v0
v1
v1
v3
v4
o2
o2
o2
o2
o2
n9.96
v0
v1
v1
v4
v4
o2
o2
o2
o2
o2
n5.44
v0
v1
v1
v4
v5
o2
o2
o2
o2
o2
n8.82
v0
v1
v2
v2
v3
o2
o2
o2
o2
o2
n9.75
v0
v1
v2
v2
v5
o2
o2
o2
o2
o2
n9.52
v0
v1
v2
v3
v4
o2
o2
o2
o2
o2
n2.52
v0
v1
v2
v4
v5
o2
o2
o2
o2
o2
n5.23
v0
v1
v2
v5
v5
o2
o2
o2
o2
o2
n1.39
v0
v1
v3
v3
v3
o2
o2
o2
o2
o2
n5.65
v0
v1
v3
v3
v4
o2
o2
o2
o2
o2
n2.1
v0
v1
v3
v4
v5
o2
o2
o2
o2
o2
n9.15
v0
v1
v3
v5
v5
o2
o2
o2
o2
o2
n0.55
v0
v1
v4
v4
v4
o16
o2
o2
o2
o2
o2
n3.88
v0
v1
v4
v5
v5
o16
o2
o2
o2
o2
o2
n5.22
v0
v2
v2
v2
v5
o16
o2
o2
o2
o2
o2
n1.87
v0
v2
v2
v3
v3
o2
o2
o2
o2
o2
n6.42
v0
v2
v3
v4
v5
o2
o2
o2
o2
o2
n5.15
v0
v2
v4
v4
v4
o2
o2
o2
o2
o2
n4.11
v0
v2
v4
v4
v5
o2
o2
o2
o2
o2
n8
v0
v3
v3
v3
v4
o2
o2
o2
o2
o2
n0.6
v0
v3
v3
v4
v5
o2
o2
o2
o2
o2
n4.42
v0
v4
v4
v4
v4
o2
o2
o2
o2
o2
n9.93
v0
v4
v4
v4
v5
o2
o2
o2
o2
o2
n4.74
v0
v4
v4
v5
v5
o16
o2
o2
o2
o2
o2
n0.37
v0
v4
v5
v5
v5
o2
o2
o2
o2
o2
n0.61
v0
v5
v5
v5
v5
o16
o2
o2
o2
o2
o2
n1.64
v1
v1
v1
v1
v1
o2
o2
o2
o2
o2
n2.35
v1
v1
v1
v1
v2
o2
o2
o2
o2
o2
n3.33
v1
v1
v1
v1
v3
o2
o2
o2
o2
o2
n7.68
v1
v1
v1
v1
v4
o2
o2
o2
o2
o2
n6.27
v1
v1
v1
v1
v5
o2
o2
o2
o2
o2
n5.98
v1
v1
v1
v2
v2
o2
o2
o2
o2
o2
n3.17
v1
v1
v1
v2
v4
o2
o2
o2
o2
o2
n7.05
v1
v1
v1
v3
v4
o2
o2
o2
o2
o2
n0.32
v1
v1
v1
v3
v5
o2
o2
o2
o2
o2
n8.58
v1
v1
v1
v4
v5
o2
o2
o2
o2
o2
n6.74
v1
v1
v1
v5
v5
o2
o2
o2
o2
o2
n1.19
v1
v1
v2
v2
v4
o16
o2
o2
o2
o2
o2
n2.46
v1
v1
v2
v2
v5
o2
o2
o2
o2
o2
n5.25
v1
v1
v2
v3
v4
o2
o2
o2
o2
o2
n2.41
v1
v1
v2
v3
v5
o2
o2
o2
o2
o2
n8.54
v1
v1
v3
v3
v4
o2
o2
o2
o2
o2
n7.52
v1
v1
v3
v4
v5
o2
o2
o2
o2
o2
n8.7
v1
v1
v4
v4
v4
o2
o2
o2
o2
o2
n9.61
v1
v2
v2
v2
v3
o2
o2
o2
o2
o2
n9.65
v1
v2
v2
v2
v4
o2
o2
o2
o2
o2
n1.6
v1
v2
v2
v3
v3
o2
o2
o2
o2
o2
n6
v1
v2
v3
v3
v3
o2
o2
o2
o2
o2
n9.64
v1
v2
v4
v4
v4
o2
o2
o2
o2
o2
n4.51
v1
v2
v4
v5
v5
o16
o2
o2
o2
o2
o2
n8.61
v1
v3
v3
v3
v5
o16
o2
o2
o2
o2
o2
n6.63
v1
v3
v3
v4
v4
o2
o2
o2
o2
o2
n7.77
v1
v3
v4
v4
v5
o2
o2
o2
o2
o2
n1.24
v1
v3
v4
v5
v5
o2
o2
o2
o2
o2
n7.89
v1
v4
v4
v5
v5
o2
o2
o2
o2
o2
n1.68
v2
v2
v2
v2
v4
o2
o2
o2
o2
o2
n6.56
v2
v2
v2
v3
v4
o2
o2
o2
o2
o2
n5.95
v2
v2
v2
v3
v5
o2
o2
o2
o2
o2
n3.2
v2
v2
v2
v4
v4
o2
o2
o2
o2
o2
n4.41
v2
v2
v2
v4
v5
o2
o2
o2
o2
o2
n0.38
v2
v2
v2
v5
v5
o2
o2
o2
o2
o2
n3.85
v2
v2
v3
v3
v3
o2
o2
o2
o2
o2
n2.89
v2
v2
v3
v3
v4
o2
o2
o2
o2
o2
n2
v2
v2
v3
v3
v5
o2
o2
o2
o2
o2
n1.3
v2
v2
v3
v4
v4
o2
o2
o2
o2
o2
n1.68
v2
v2
v4
v4
v4
o2
o2
o2
o2
o2
n1.37
v2
v2
v4
v4
v5
o2
o2
o2
o2
o2
n8.52
v2
v2
v4
v5
v5
o2
o2
o2
o2
o2
n6.11
v2
v2
v5
v5
v5
o2
o2
o2
o2
o2
n1.31
v2
v3
v3
v3
v5
o2
o2
o2
o2
o2
n1.79
v2
v3
v3
v4
v4
o2
o2
o2
o2
o2
n9.22
v2
v3
v3
v4
v5
o2
o2
o2
o2
o2
n4.68
v2
v3
v3
v5
v5
o2
o2
o2
o2
o2
n4.63
v2
v3
v4
v4
v4
o2
o2
o2
o2
o2
n9.97
v2
v3
v4
v4
v5
o2
o2
o2
o2
o2
n6.03
v2
v3
v5
v5
v5
o2
o2
o2
o2
o2
n9.47
v2
v4
v4
v4
v4
o2
o2
o2
o2
o2
n9.68
v2
v4
v4
v4
v5
o16
o2
o2
o2
o2
o2
n9.62
v2
v5
v5
v5
v5
o2
o2
o2
o2
o2
n4.33
v3
v3
v3
v3
v3
o2
o2
o2
o2
o2
n6.42
v3
v3
v3
v4
v4
o2
o2
o2
o2
o2
n8.03
v3
v3
v3
v4
v5
o2
o2
o2
o2
o2
n8.79
v3
v3
v4
v4
v4
o2
o2
o2
o2
o2
n0.94
v3
v3
v4
v4
v5
o2
o2
o2
o2
o2
n6.99
v3
v3
v4
v5
v5
o2
o2
o2
o2
o2
n3.44
v3
v4
v4
v4
v5
o2
o2
o2
o2
o2
n7.55
v3
v4
v5
v5
v5
o2
o2
o2
o2
o2
n3.39
v4
v4
v4
v4
v5
o2
o2
o2
o2
o2
n1.45
v4
v5
v5
v5
v5
o2
o2
o2
o2
o2
n1.71
v5
v5
v5
v5
v5
o2
o2
o2
o2
o2
o2
n6.91
v0
v0
v0
v0
v0
v1
o2
o2
o2
o2
o2
o2
n0.4
v0
v0
v0
v0
v0
v2
o2
o2
o2
o2
o2
o2
n3.51
v0
v0
v0
v0
v0
v3
o2
o2
o2
o2
o2
o2
n1.83
v0
v0
v0
v0
v0
v4
o2
o2
o2
o2
o2
o2
n9.09
v0
v0
v0
v0
v1
v1
o2
o2
o2
o2
o2
o2
n3.68
v0
v0
v0
v0
v1
v3
o16
o2
o2
o2
o2
o2
o2
n6.09
v0
v0
v0
v0
v1
v4
o2
o2
o2
o2
o2
o2
n8.33
v0
v0
v0
v0
v1
v5
o2
o2
o2
o2
o2
o2
n8.87
v0
v0
v0
v0
v2
v3
o2
o2
o2
o2
o2
o2
n0.92
v0
v0
v0
v0
v2
v4
o2
o2
o2
o2
o2
o2
n8.43
v0
v0
v0
v0
v3
v4
o2
o2
o2
o2
o2
o2
n4.99
v0
v0
v0
v0
v3
v5
o2
o2
o2
o2
o2
o2
n6.37
v0
v0
v0
v0
v4
v5
o2
o2
o2
o2
o2
o2
n0.03
v0
v0
v0
v1
v1
v1
o2
o2
o2
o2
o2
o2
n4.37
v0
v0
v0
v1
v1
v2
o2
o2
o2
o2
o2
o2
n9.63
v0
v0
v0
v1
v1
v5
o2
o2
o2
o2
o2
o2
n0.95
v0
v0
v0
v1
v2
v2
o2
o2
o2
o2
o2
o2
n4.67
v0
v0
v0
v1
v2
v3
o16
o2
o2
o2
o2
o2
o2
n1.95
v0
v0
v0
v1
v3
v3
o2
o2
o2
o2
o2
o2
n0.31
v0
v0
v0
v1
v3
v4
o2
o2
o2
o2
o2
o2
n6.4
v0
v0
v0
v1
v4
v4
o2
o2
o2
o2
o2
o2
n1.02
v0
v0
v0
v2
v2
v2
o16
o2
o2
o2
o2
o2
o2
n4.22
v0
v0
v0
v2
v2
v5
o2
o2
o2
o2
o2
o2
n2.68
v0
v0
v0
v2
v3
v5
o2
o2
o2
o2
o2
o2
n7.42
v0
v0
v0
v2
v4
v4
o2
o2
o2
o2
o2
o2
n5.74
v0
v0
v0
v2
v5
v5
o2
o2
o2
o2
o2
o2
n1.3
v0
v0
v0
v3
v3
v3
o2
o2
o2
o2
o2
o2
n8.62
v0
v0
v0
v3
v4
v5
o2
o2
o2
o2
o2
o2
n7.28
v0
v0
v0
v4
v5
v5
o2
o2
o2
o2
o2
o2
n5.28
v0
v0
v1
v1
v2
v2
o2
o2
o2
o2
o2
o2
n3.75
v0
v0
v1
v1
v3
v4
o2
o2
o2
o2
o2
o2
n6.13
v0
v0
v1
v1
v3
v5
o2
o2
o2
o2
o2
o2
n6.79
v0
v0
v1
v1
v4
v5
o2
o2
o2
o2
o2
o2
n6.34
v0
v0
v1
v2
v2
v4
o2
o2
o2
o2
o2
o2
n7.04
v0
v0
v1
v2
v3
v3
o2
o2
o2
o2
o2
o2
n0.46
v0
v0
v1
v2
v3
v4
o16
o2
o2
o2
o2
o2
o2
n4.48
v0
v0
v1
v2
v3
v5
o2
o2
o2
o2
o2
o2
n7.67
v0
v0
v1
v2
v4
v4
o2
o2
o2
o2
o2
o2
n7.5
v0
v0
v1
v2
v4
v5
o2
o2
o2
o2
o2
o2
n6.48
v0
v0
v1
v2
v5
v5
o2
o2
o2
o2
o2
o2
n8.06
v0
v0
v1
v3
v3
v4
o2
o2
o2
o2
o2
o2
n3.06
v0
v0
v1
v3
v4
v4
o2
o2
o2
o2
o2
o2
n9.27
v0
v0
v1
v3
v4
v5
o2
o2
o2
o2
o2
o2
n2.32
v0
v0
v1
v3
v5
v5
o2
o2
o2
o2
o2
o2
n7.09
v0
v0
v1
v4
v4
v4
o2
o2
o2
o2
o2
o2
n5.6
v0
v0
v1
v5
v5
v5
o2
o2
o2
o2
o2
o2
n2.69
v0
v0
v2
v2
v2
v2
o2
o2
o2
o2
o2
o2
n4.28
v0
v0
v2
v2
v2
v3
o2
o2
o2
o2
o2
o2
n6.96
v0
v0
v2
v2
v2
v4
o2
o2
o2
o2
o2
o2
n3.17
v0
v0
v2
v2
v2
v5
o2
o2
o2
o2
o2
o2
n3.87
v0
v0
v2
v2
v3
v4
o2
o2
o2
o2
o2
o2
n2.9
v0
v0
v2
v2
v3
v5
o2
o2
o2
o2
o2
o2
n4.06
v0
v0
v2
v2
v4
v4
o2
o2
o2
o2
o2
o2
n5.23
v0
v0
v2
v3
v3
v4
o2
o2
o2
o2
o2
o2
n5.46
v0
v0
v2
v3
v3
v5
o2
o2
o2
o2
o2
o2
n0.43
v0
v0
v2
v3
v4
v4
o2
o2
o2
o2
o2
o2
n2.23
v0
v0
v2
v3
v4
v5
o2
o2
o2
o2
o2
o2
n0.81
v0
v0
v2
v3
v5
v5
o2
o2
o2
o2
o2
o2
n8.79
v0
v0
v3
v3
v3
v4
o2
o2
o2
o2
o2
o2
n9.38
v0
v0
v3
v3
v4
v4
o2
o2
o2
o2
o2
o2
n0.46
v0
v0
v3
v3
v4
v5
o2
o2
o2
o2
o2
o2
n7.76
v0
v0
v3
v4
v4
v4
o2
o2
o2
o2
o2
o2
n7.13
v0
v0
v3
v4
v4
v5
o2
o2
o2
o2
o2
o2
n2.43
v0
v0
v4
v4
v4
v4
o16
o2
o2
o2
o2
o2
o2
n1.82
v0
v0
v4
v5
v5
v5
o2
o2
o2
o2
o2
o2
n3.27
v0
v1
v1
v1
v1
v3
o2
o2
o2
o2
o2
o2
n0.3
v0
v1
v1
v1
v1
v4
o2
o2
o2
o2
o2
o2
n3.6
v0
v1
v1
v1
v2
v3
o16
o2
o2
o2
o2
o2
o2
n3.7
v0
v1
v1
v1
v2
v4
o2
o2
o2
o2
o2
o2
n5.64
v0
v1
v1
v1
v2
v5
o16
o2
o2
o2
o2
o2
o2
n0.45
v0
v1
v1
v1
v3
v3
o2
o2
o2
o2
o2
o2
n0.58
v0
v1
v1
v1
v3
v5
o2
o2
o2
o2
o2
o2
n9.19
v0
v1
v1
v2
v2
v5
o2
o2
o2
o2
o2
o2
n7.24
v0
v1
v1
v2
v3
v4
o2
o2
o2
o2
o2
o2
n9.18
v0
v1
v1
v2
v4
v5
o2
o2
o2
o2
o2
o2
n8.4
v0
v1
v1
v2
v5
v5
o2
o2
o2
o2
o2
o2
n9.82
v0
v1
v1
v3
v3
v3
o2
o2
o2
o2
o2
o2
n8.84
v0
v1
v1
v3
v3
v5
o2
o2
o2
o2
o2
o2
n5.82
v0
v1
v1
v3
v4
v4
o16
o2
o2
o2
o2
o2
o2
n4.28
v0
v1
v1
v3
v4
v5
o2
o2
o2
o2
o2
o2
n9.52
v0
v1
v1
v4
v4
v5
o2
o2
o2
o2
o2
o2
n5.05
v0
v1
v2
v2
v2
v2
o2
o2
o2
o2
o2
o2
n7.03
v0
v1
v2
v2
v2
v3
o2
o2
o2
o2
o2
o2
n3.8
v0
v1
v2
v2
v2
v4
o16
o2
o2
o2
o2
o2
o2
n9.74
v0
v1
v2
v2
v3
v4
o2
o2
o2
o2
o2
o2
n1.12
v0
v1
v2
v2
v3
v5
o2
o2
o2
o2
o2
o2
n7.6
v0
v1
v2
v2
v4
v4
o2
o2
o2
o2
o2
o2
n8.26
v0
v1
v2
v2
v5
v5
o2
o2
o2
o2
o2
o2
n5.99
v0
v1
v2
v3
v3
v3
o2
o2
o2
o2
o2
o2
n0.93
v0
v1
v2
v3
v3
v4
o16
o2
o2
o2
o2
o2
o2
n2.52
v0
v1
v2
v3
v5
v5
o2
o2
o2
o2
o2
o2
n3.3
v0
v1
v2
v4
v4
v4
o16
o2
o2
o2
o2
o2
o2
n5.46
v0
v1
v3
v3
v3
v3
o2
o2
o2
o2
o2
o2
n6.24
v0
v1
v3
v3
v3
v5
o2
o2
o2
o2
o2
o2
n0.31
v0
v1
v3
v3
v4
v4
o16
o2
o2
o2
o2
o2
o2
n8.82
v0
v1
v3
v4
v4
v5
o2
o2
o2
o2
o2
o2
n6.02
v0
v1
v3
v5
v5
v5
o16
o2
o2
o2
o2
o2
o2
n7.23
v0
v1
v4
v4
v4
v4
o2
o2
o2
o2
o2
o2
n7.59
v0
v2
v2
v2
v2
v2
o16
o2
o2
o2
o2
o2
o2
n0.09
v0
v2
v2
v2
v2
v3
o2
o2
o2
o2
o2
o2
n6.37
v0
v2
v2
v2
v3
v3
o2
o2
o2
o2
o2
o2
n4.24
v0
v2
v2
v2
v4
v4
o2
o2
o2
o2
o2
o2
n4.89
v0
v2
v2
v2
v4
v5
o2
o2
o2
o2
o2
o2
n0.12
v0
v2
v2
v2
v5
v5
o2
o2
o2
o2
o2
o2
n7.52
v0
v2
v2
v3
v5
v5
o2
o2
o2
o2
o2
o2
n0.74
v0
v2
v2
v4
v4
v4
o2
o2
o2
o2
o2
o2
n3.74
v0
v2
v2
v4
v5
v5
o2
o2
o2
o2
o2
o2
n3.32
v0
v2
v3
v3
v3
v3
o2
o2
o2
o2
o2
o2
n5.45
v0
v2
v3
v3
v3
v5
o2
o2
o2
o2
o2
o2
n7.66
v0
v2
v3
v3
v5
v5
o16
o2
o2
o2
o2
o2
o2
n4.96
v0
v2
v4
v4
v4
v4
o2
o2
o2
o2
o2
o2
n0.37
v0
v2
v4
v5
v5
v5
o2
o2
o2
o2
o2
o2
n5.12
v0
v3
v3
v3
v3
v4
o2
o2
o2
o2
o2
o2
n8.85
v0
v3
v3
v3
v4
v4
o2
o2
o2
o2
o2
o2
n8.27
v0
v3
v3
v3
v4
v5
o2
o2
o2
o2
o2
o2
n4.35
v0
v3
v3
v3
v5
v5
o2
o2
o2
o2
o2
o2
n5.57
v0
v3
v3
v4
v5
v5
o16
o2
o2
o2
o2
o2
o2
n7.85
v0
v3
v3
v5
v5
v5
o2
o2
o2
o2
o2
o2
n3.08
v0
v3
v4
v4
v4
v5
o2
o2
o2
o2
o2
o2
n8.13
v0
v3
v4
v4
v5
v5
o2
o2
o2
o2
o2
o2
n6.45
v0
v3
v4
v5
v5
v5
o16
o2
o2
o2
o2
o2
o2
n5.88
v0
v3
v5
v5
v5
v5
o2
o2
o2
o2
o2
o2
n0.55
v0
v4
v4
v4
v4
v4
o2
o2
o2
o2
o2
o2
n3
v0
v4
v4
v4
v4
v5
o2
o2
o2
o2
o2
o2
n5.68
v0
v4
v4
v4
v5
v5
o2
o2
o2
o2
o2
o2
n1.13
v0
v4
v5
v5
v5
v5
o2
o2
o2
o2
o2
o2
n6.96
v1
v1
v1
v1
v1
v2
o2
o2
o2
o2
o2
o2
n8.54
v1
v1
v1
v1
v1
v3
o2
o2
o2
o2
o2
o2
n8.39
v1
v1
v1
v1
v1
v5
o16
o2
o2
o2
o2
o2
o2
n9.26
v1
v1
v1
v1
v2
v2
o16
o2
o2
o2
o2
o2
o2
n8.23
v1
v1
v1
v1
v2
v4
o2
o2
o2
o2
o2
o2
n3.78
v1
v1
v1
v1
v3
v5
o2
o2
o2
o2
o2
o2
n7.13
v1
v1
v1
v1
v4
v4
o2
o2
o2
o2
o2
o2
n5.13
v1
v1
v1
v1
v4
v5
o2
o2
o2
o2
o2
o2
n5.76
v1
v1
v1
v2
v2
v2
o2
o2
o2
o2
o2
o2
n9.57
v1
v1
v1
v2
v2
v3
o2
o2
o2
o2
o2
o2
n3.3
v1
v1
v1
v2
v2
v5
o2
o2
o2
o2
o2
o2
n5.84
v1
v1
v1
v2
v3
v4
o2
o2
o2
o2
o2
o2
n3.51
v1
v1
v1
v2
v4
v4
o2
o2
o2
o2
o2
o2
n2.19
v1
v1
v1
v2
v4
v5
o2
o2
o2
o2
o2
o2
n9.86
v1
v1
v1
v2
v5
v5
o2
o2
o2
o2
o2
o2
n4.98
v1
v1
v1
v3
v3
v3
o16
o2
o2
o2
o2
o2
o2
n6.3
v1
v1
v1
v3
v3
v4
o2
o2
o2
o2
o2
o2
n8.27
v1
v1
v1
v3
v3
v5
o2
o2
o2
o2
o2
o2
n5.26
v1
v1
v1
v3
v5
v5
o16
o2
o2
o2
o2
o2
o2
n8.11
v1
v1
v1
v4
v4
v4
o2
o2
o2
o2
o2
o2
n9.4
v1
v1
v2
v2
v2
v2
o2
o2
o2
o2
o2
o2
n0.9
v1
v1
v2
v2
v3
v3
o2
o2
o2
o2
o2
o2
n8.67
v1
v1
v2
v2
v3
v5
o2
o2
o2
o2
o2
o2
n9.58
v1
v1
v2
v3
v3
v3
o2
o2
o2
o2
o2
o2
n9.33
v1
v1
v2
v3
v4
v4
o2
o2
o2
o2
o2
o2
n7.02
v1
v1
v2
v3
v5
v5
o2
o2
o2
o2
o2
o2
n6.37
v1
v1
v2
v4
v4
v5
o2
o2
o2
o2
o2
o2
n0.45
v1
v1
v2
v5
v5
v5
o2
o2
o2
o2
o2
o2
n5.95
v1
v1
v3
v3
v3
v4
o2
o2
o2
o2
o2
o2
n6.06
v1
v1
v3
v3
v4
v5
o2
o2
o2
o2
o2
o2
n9.49
v1
v1
v3
v3
v5
v5
o2
o2
o2
o2
o2
o2
n7.85
v1
v1
v3
v4
v4
v4
o2
o2
o2
o2
o2
o2
n5.78
v1
v1
v3
v5
v5
v5
o2
o2
o2
o2
o2
o2
n9.8
v1
v1
v4
v4
v5
v5
o2
o2
o2
o2
o2
o2
n2.94
v1
v1
v4
v5
v5
v5
o2
o2
o2
o2
o2
o2
n5.39
v1
v2
v2
v2
v2
v3
o2
o2
o2
o2
o2
o2
n6.54
v1
v2
v2
v2
v2
v5
o2
o2
o2
o2
o2
o2
n3.52
v1
v2
v2
v2
v3
v4
o2
o2
o2
o2
o2
o2
n5.6
v1
v2
v2
v2
v3
v5
o2
o2
o2
o2
o2
o2
n4.98
v1
v2
v2
v2
v4
v4
o2
o2
o2
o2
o2
o2
n3
v1
v2
v2
v2
v4
v5
o2
o2
o2
o2
o2
o2
n8.39
v1
v2
v2
v2
v5
v5
o2
o2
o2
o2
o2
o2
n1.79
v1
v2
v2
v3
v3
v3
o2
o2
o2
o2
o2
o2
n9.83
v1
v2
v2
v3
v3
v5
o2
o2
o2
o2
o2
o2
n4.06
v1
v2
v2
v3
v4
v5
o16
o2
o2
o2
o2
o2
o2
n5.09
v1
v2
v2
v4
v4
v5
o2
o2
o2
o2
o2
o2
n3.91
v1
v2
v2
v4
v5
v5
o2
o2
o2
o2
o2
o2
n8.69
v1
v2
v3
v3
v3
v3
o2
o2
o2
o2
o2
o2
n1.02
v1
v2
v3
v3
v4
v4
o16
o2
o2
o2
o2
o2
o2
n8.69
v1
v2
v3
v3
v5
v5
o2
o2
o2
o2
o2
o2
n6.46
v1
v2
v3
v4
v4
v5
o2
o2
o2
o2
o2
o2
n1.36
v1
v2
v3
v4
v5
v5
o2
o2
o2
o2
o2
o2
n7.22
v1
v2
v4
v4
v5
v5
o2
o2
o2
o2
o2
o2
n4.79
v1
v2
v4
v5
v5
v5
o2
o2
o2
o2
o2
o2
n1.17
v1
v2
v5
v5
v5
v5
o2
o2
o2
o2
o2
o2
n5.46
v1
v3
v3
v3
v3
v4
o2
o2
o2
o2
o2
o2
n8.8
v1
v3
v3
v3
v4
v5
o2
o2
o2
o2
o2
o2
n6.9
v1
v3
v3
v3
v5
v5
o2
o2
o2
o2
o2
o2
n3.49
v1
v3
v3
v4
v4
v5
o2
o2
o2
o2
o2
o2
n4.43
v1
v3
v4
v4
v5
v5
o2
o2
o2
o2
o2
o2
n6.79
v1
v3
v4
v5
v5
v5
o2
o2
o2
o2
o2
o2
n5.09
v1
v4
v4
v4
v5
v5
o2
o2
o2
o2
o2
o2
n0.26
v1
v4
v4
v5
v5
v5
o2
o2
o2
o2
o2
o2
n6.79
v1
v5
v5
v5
v5
v5
o2
o2
o2
o2
o2
o2
n0.46
v2
v2
v2
v2
v2
v3
o2
o2
o2
o2
o2
o2
n5.82
v2
v2
v2
v2
v2
v4
o2
o2
o2
o2
o2
o2
n8.66
v2
v2
v2
v2
v2
v5
o16
o2
o2
o2
o2
o2
o2
n6.64
v2
v2
v2
v2
v3
v4
o2
o2
o2
o2
o2
o2
n1.83
v2
v2
v2
v2
v4
v4
o2
o2
o2
o2
o2
o2
n3.16
v2
v2
v2
v2
v4
v5
o2
o2
o2
o2
o2
o2
n6.42
v2
v2
v2
v2
v5
v5
o2
o2
o2
o2
o2
o2
n5.44
v2
v2
v2
v3
v3
v5
o2
o2
o2
o2
o2
o2
n1.56
v2
v2
v2
v3
v4
v5
o2
o2
o2
o2
o2
o2
n1.07
v2
v2
v2
v3
v5
v5
o2
o2
o2
o2
o2
o2
n3.23
v2
v2
v2
v4
v4
v4
o2
o2
o2
o2
o2
o2
n5
v2
v2
v2
v5
v5
v5
o16
o2
o2
o2
o2
o2
o2
n5.95
v2
v2
v3
v3
v3
v3
o2
o2
o2
o2
o2
o2
n7.14
v2
v2
v3
v3
v3
v4
o2
o2
o2
o2
o2
o2
n3.49
v2
v2
v3
v3
v4
v5
o2
o2
o2
o2
o2
o2
n1.72
v2
v2
v3
v3
v5
v5
o2
o2
o2
o2
o2
o2
n5.33
v2
v2
v3
v5
v5
v5
o2
o2
o2
o2
o2
o2
n7.37
v2
v2
v4
v4
v4
v5
o2
o2
o2
o2
o2
o2
n0.21
v2
v2
v4
v4
v5
v5
o2
o2
o2
o2
o2
o2
n2.14
v2
v2
v4
v5
v5
v5
o2
o2
o2
o2
o2
o2
n3.56
v2
v3
v3
v3
v3
v3
o2
o2
o2
o2
o2
o2
n2.38
v2
v3
v3
v3
v4
v4
o2
o2
o2
o2
o2
o2
n0.21
v2
v3
v3
v4
v4
v4
o2
o2
o2
o2
o2
o2
n9.67
v2
v3
v4
v4
v4
v5
o16
o2
o2
o2
o2
o2
o2
n8.93
v2
v4
v4
v4
v4
v4
o2
o2
o2
o2
o2
o2
n4.75
v2
v4
v4
v4
v4
v5
o2
o2
o2
o2
o2
o2
n0.58
v2
v4
v4
v5
v5
v5
o2
o2
o2
o2
o2
o2
n2.6
v2
v4
v5
v5
v5
v5
o2
o2
o2
o2
o2
o2
n6.14
v2
v5
v5
v5
v5
v5
o2
o2
o2
o2
o2
o2
n7.68
v3
v3
v3
v3
v3
v3
o2
o2
o2
o2
o2
o2
n6.38
v3
v3
v3
v3
v3
v4
o2
o2
o2
o2
o2
o2
n3.37
v3
v3
v3
v3
v3
v5
o2
o2
o2
o2
o2
o2
n9.69
v3
v3
v3
v4
v5
v5
o2
o2
o2
o2
o2
o2
n4.84
v3
v3
v3
v5
v5
v5
o2
o2
o2
o2
o2
o2
n9.57
v3
v3
v4
v4
v4
v4
o2
o2
o2
o2
o2
o2
n9.07
v3
v3
v5
v5
v5
v5
o2
o2
o2
o2
o2
o2
n8.43
v3
v4
v4
v4
v4
v5
o2
o2
o2
o2
o2
o2
n1.53
v3
v4
v5
v5
v5
v5
o2
o2
o2
o2
o2
o2
n9.21
v3
v5
v5
v5
v5
v5
o2
o2
o2
o2
o2
o2
n3.18
v4
v4
v4
v4
v4
v4
o16
o2
o2
o2
o2
o2
o2
n1.37
v4
v4
v4
v4
v5
v5
o2
o2
o2
o2
o2
o2
n7.08
v4
v4
v4
v5
v5
v5
o2
o2
o2
o2
o2
o2
n2.9
v4
v4
v5
v5
v5
v5
o2
o2
o2
o2
o2
o2
n8.62
v4
v5
v5
v5
v5
v5
k5
5
10
15
20
25
J0 6
0 3.02
1 8.98
2 5.24
3 5.01
4 7.9
5 1.35
J1 6
0 8.01
1 7.16
2 0.06
3 4.66
4 3.7
5 5.64
J2 6
0 1.96
1 2.88
2 5.39
3 0.37
4 4.09
5 9.23
J3 6
0 2.81
1 2.22
2 0.96
3 0.81
4 2.59
5 0.26
J4 6
0 4.76
1 8.42
2 9.49
3 1.96
4 0.4
5 -5.02
G0 6
0 7.99
1 5.07
2 2.25
3 2.23
4 5.93
5 2.59
